
Gurobi 9.0.2 (win64) logging started Sat Oct 10 17:40:56 2020

Changed value of parameter logfile to result\v6.2-20201010T1221\scenario_2030_eff100_cab4000.log
   Prev:   Default: 
Gurobi Optimizer version 9.0.2 build v9.0.2rc0 (win64)
Optimize a model with 1384150 rows, 884815 columns and 3912197 nonzeros
Model fingerprint: 0x58be40f2
Coefficient statistics:
  Matrix range     [1e-07, 4e+05]
  Objective range  [1e+00, 1e+00]
  Bounds range     [0e+00, 0e+00]
  RHS range        [2e-05, 3e+08]
Warning: Model contains large matrix coefficient range
         Consider reformulating model or setting NumericFocus parameter
         to avoid numerical issues.

Concurrent LP optimizer: primal simplex, dual simplex, and barrier
Showing barrier log only...

Presolve removed 1129315 rows and 656241 columns
Presolve time: 3.36s
Presolved: 254835 rows, 342440 columns, 891938 nonzeros

Ordering time: 0.13s

Barrier statistics:
 Dense cols : 9
 AA' NZ     : 8.194e+05
 Factor NZ  : 4.461e+06 (roughly 300 MBytes of memory)
 Factor Ops : 1.125e+08 (less than 1 second per iteration)
 Threads    : 30

                  Objective                Residual
Iter       Primal          Dual         Primal    Dual     Compl     Time
   0  -2.05100325e+16 -1.58516299e+15  6.15e+06 1.56e+04  2.46e+12     4s
   1  -3.14418390e+15 -1.58947427e+15  9.35e+05 4.73e+06  8.13e+11     4s
   2  -1.32319216e+15 -1.27422845e+15  3.91e+05 7.35e+05  2.11e+11     5s
   3  -4.37232769e+14 -1.03637114e+15  1.27e+05 1.78e+05  6.37e+10     5s
   4  -9.90421113e+13 -6.29079959e+14  2.73e+04 4.35e+04  1.49e+10     5s
   5  -3.60702555e+13 -4.22452346e+14  1.05e+04 2.12e+04  6.56e+09     6s
   6  -1.64327471e+13 -3.52387408e+14  5.05e+03 1.50e+04  4.00e+09     6s
   7  -8.33667010e+12 -1.90860323e+14  2.73e+03 3.72e+03  1.47e+09     6s
   8  -2.23802960e+12 -9.93181080e+13  9.11e+02 6.06e+02  4.01e+08     6s
   9   6.94245161e+11 -2.43884743e+13  9.54e+00 2.00e+01  3.98e+07     7s
  10   3.41267349e+11 -1.88230799e+12  1.88e-01 1.30e+00  3.35e+06     7s
  11   2.02337723e+11 -6.59482705e+11  9.14e-02 3.30e-01  1.27e+06     7s
  12   1.04032846e+11 -2.68445488e+11  4.11e-02 2.34e-02  5.45e+05     8s
  13   5.26288894e+10 -2.05979940e+11  1.88e-02 1.12e-08  3.76e+05     8s
  14   4.02825070e+10 -1.39610696e+11  1.35e-02 1.12e-08  2.61e+05     8s
  15   2.13848190e+10 -8.71235895e+10  5.97e-03 1.49e-08  1.57e+05     8s
  16   1.75425289e+10 -5.36606488e+10  4.59e-03 1.12e-08  1.03e+05     9s
  17   1.32196001e+10 -2.52108837e+10  2.34e-03 1.12e-08  5.56e+04     9s
  18   9.45010094e+09 -5.36289705e+09  8.01e-04 1.12e-08  2.14e+04     9s
  19   8.35748523e+09  1.00608348e+09  4.12e-04 7.45e-09  1.06e+04     9s
  20   7.98235903e+09  4.21728662e+09  2.91e-04 5.59e-09  5.44e+03    10s
  21   7.75419639e+09  4.61176255e+09  2.23e-04 5.59e-09  4.54e+03    10s
  22   7.64382942e+09  5.24990096e+09  1.90e-04 3.73e-09  3.46e+03    10s
  23   7.44177155e+09  5.56271197e+09  1.32e-04 3.73e-09  2.71e+03    10s
  24   7.26526030e+09  6.07207785e+09  8.10e-05 2.79e-09  1.72e+03    11s
  25   7.10902232e+09  6.50198142e+09  3.89e-05 1.86e-09  8.77e+02    11s
  26   7.02082304e+09  6.63785751e+09  1.66e-05 1.86e-09  5.53e+02    12s
  27   6.99537536e+09  6.67773448e+09  1.06e-05 1.86e-09  4.59e+02    12s
  28   6.97659068e+09  6.74091263e+09  6.70e-06 1.86e-09  3.40e+02    12s
  29   6.96562823e+09  6.79486959e+09  4.49e-06 1.86e-09  2.47e+02    12s
  30   6.95946968e+09  6.82252618e+09  3.27e-06 1.86e-09  1.98e+02    13s
  31   6.95318028e+09  6.85710793e+09  2.05e-06 1.86e-09  1.39e+02    13s
  32   6.94796765e+09  6.89541588e+09  1.06e-06 1.86e-09  7.59e+01    13s
  33   6.94587774e+09  6.92047899e+09  7.03e-07 1.86e-09  3.67e+01    14s
  34   6.94442498e+09  6.92327119e+09  4.86e-07 1.86e-09  3.05e+01    14s
  35   6.94355537e+09  6.92729149e+09  3.61e-07 1.86e-09  2.35e+01    14s
  36   6.94231885e+09  6.93508654e+09  1.92e-07 2.79e-09  1.04e+01    15s
  37   6.94207019e+09  6.93604219e+09  1.57e-07 1.86e-09  8.70e+00    15s
  38   6.94121941e+09  6.93935556e+09  6.25e-07 1.86e-09  2.69e+00    15s
  39   6.94095582e+09  6.94028133e+09  2.72e-07 2.79e-09  9.74e-01    15s
  40   6.94087182e+09  6.94067964e+09  1.45e-07 2.79e-09  2.77e-01    16s
  41   6.94085230e+09  6.94079176e+09  1.17e-07 2.79e-09  8.74e-02    16s
  42   6.94084314e+09  6.94082813e+09  9.06e-08 2.79e-09  2.17e-02    16s
  43   6.94084282e+09  6.94083732e+09  2.90e-08 1.86e-09  7.93e-03    17s
  44   6.94084262e+09  6.94084261e+09  9.62e-09 1.86e-08  1.53e-05    17s
  45   6.94084262e+09  6.94084261e+09  1.99e-04 3.89e-05  1.53e-05    18s

Barrier solved model in 45 iterations and 17.58 seconds
Optimal objective 6.94084262e+09

Crossover log...

   76208 DPushes remaining with DInf 0.0000000e+00                18s
    6131 DPushes remaining with DInf 0.0000000e+00                20s
       0 DPushes remaining with DInf 0.0000000e+00                24s
Warning: Markowitz tolerance tightened to 0.5

   79101 PPushes remaining with PInf 7.8660872e-03                24s
   40767 PPushes remaining with PInf 2.8897591e-02                31s
   26281 PPushes remaining with PInf 6.3622843e-02                36s
       0 PPushes remaining with PInf 0.0000000e+00                38s

  Push phase complete: Pinf 0.0000000e+00, Dinf 1.3426989e+02     38s

Iteration    Objective       Primal Inf.    Dual Inf.      Time
  106550    6.9408426e+09   0.000000e+00   1.342699e+02     39s
  106605    6.9408426e+09   0.000000e+00   0.000000e+00     41s

Solved with barrier
Solved in 106605 iterations and 41.40 seconds
Optimal objective  6.940842623e+09
Warning: unscaled primal violation = 0.000878159 and residual = 0.000878159
